p edge 285 284
e 1 218
e 1 166
e 2 204
e 2 195
e 2 200
e 3 58
e 4 67
e 4 113
e 4 37
e 5 13
e 6 197
e 6 59
e 7 141
e 8 277
e 8 48
e 9 126
e 10 219
e 10 58
e 11 244
e 11 284
e 12 115
e 13 72
e 14 45
e 14 102
e 15 53
e 16 27
e 16 48
e 17 22
e 17 157
e 17 253
e 17 170
e 18 280
e 19 45
e 20 217
e 21 127
e 21 42
e 23 97
e 23 236
e 24 119
e 24 117
e 25 47
e 25 57
e 26 51
e 26 283
e 26 245
e 28 240
e 28 51
e 29 156
e 29 118
e 30 220
e 30 112
e 30 282
e 30 81
e 30 261
e 31 251
e 31 206
e 31 85
e 32 266
e 32 278
e 32 161
e 33 189
e 33 116
e 33 174
e 34 138
e 34 109
e 35 118
e 35 36
e 35 121
e 36 115
e 36 223
e 36 96
e 37 146
e 37 170
e 37 264
e 38 112
e 39 128
e 39 227
e 40 120
e 41 104
e 41 130
e 41 124
e 41 44
e 42 261
e 42 215
e 43 259
e 44 249
e 46 280
e 47 187
e 48 53
e 48 122
e 49 264
e 49 50
e 50 90
e 50 221
e 51 275
e 52 120
e 52 195
e 53 87
e 54 215
e 55 212
e 55 153
e 56 174
e 56 128
e 57 79
e 58 175
e 58 186
e 59 275
e 60 113
e 61 230
e 62 232
e 62 207
e 62 127
e 63 143
e 64 101
e 64 194
e 65 226
e 65 66
e 66 244
e 68 260
e 68 243
e 69 82
e 70 217
e 71 184
e 71 261
e 72 173
e 72 230
e 72 217
e 73 175
e 74 172
e 74 136
e 75 143
e 76 80
e 77 111
e 78 173
e 79 102
e 79 192
e 80 250
e 80 98
e 81 201
e 81 272
e 82 188
e 82 217
e 83 214
e 83 277
e 84 141
e 84 126
e 84 237
e 85 229
e 85 195
e 86 122
e 86 209
e 88 148
e 88 274
e 89 195
e 91 184
e 92 210
e 92 260
e 93 177
e 94 274
e 94 143
e 95 136
e 96 284
e 98 263
e 98 99
e 98 152
e 99 114
e 99 270
e 100 275
e 102 213
e 103 238
e 103 160
e 105 134
e 105 161
e 106 283
e 107 151
e 108 145
e 108 137
e 109 167
e 109 236
e 109 277
e 110 257
e 110 247
e 110 206
e 111 186
e 112 152
e 113 139
e 113 183
e 113 248
e 116 242
e 117 149
e 118 246
e 118 252
e 120 131
e 121 207
e 122 254
e 123 158
e 123 161
e 123 136
e 124 222
e 125 262
e 125 243
e 126 149
e 127 176
e 127 241
e 128 237
e 129 196
e 129 284
e 132 143
e 133 233
e 134 162
e 135 178
e 135 208
e 135 257
e 136 231
e 136 200
e 136 203
e 137 198
e 137 175
e 138 164
e 139 154
e 140 187
e 142 190
e 143 255
e 143 237
e 144 182
e 147 233
e 147 217
e 150 195
e 151 199
e 151 223
e 153 260
e 155 167
e 158 186
e 159 162
e 160 205
e 162 165
e 162 268
e 163 206
e 166 251
e 168 256
e 169 203
e 171 235
e 174 269
e 177 276
e 179 220
e 180 205
e 181 186
e 182 221
e 182 217
e 185 253
e 190 198
e 191 196
e 192 205
e 192 225
e 193 240
e 194 271
e 202 233
e 203 285
e 207 267
e 209 243
e 209 249
e 211 265
e 211 240
e 215 268
e 216 272
e 217 235
e 217 285
e 224 273
e 225 265
e 227 282
e 228 282
e 230 273
e 232 239
e 233 279
e 234 271
e 245 258
e 247 249
e 249 256
e 250 280
e 258 272
e 259 277
e 271 275
e 276 277
e 278 281
